--- Job mini-globiom_01.gms Start 05/14/25 15:04:09 49.5.0 b32bf9f5 WEX-WEI x86 64bit/MS Windows
--- Applying:
    C:\GAMS\49\gmsprmNT.txt
--- GAMS Parameters defined
    Input C:\Users\user\OneDrive\Documents\GitHub\mini-globiom\models\mini-globiom_01.gms
    PageSize 0
    ScrDir C:\Users\user\OneDrive\Documents\GitHub\mini-globiom\models\225a\
    SysDir C:\GAMS\49\
    LogOption 3
    ErrMsg 1
    ErrorLog 99
    IDE 1
    LstTitleLeftAligned 1
Licensee: GAMS Demo, for EULA and demo limitations see   G250131/0001CB-GEN
          https://www.gams.com/latest/docs/UG%5FLicense.html         DC0000
          C:\GAMS\49\gamslice.txt
          Demo license for demonstration and instructional purposes only
System information: 6 physical cores and 16 Gb memory detected
GAMS 49.5.0   Copyright (C) 1987-2025 GAMS Development. All rights reserved
--- Starting compilation
--- mini-globiom_01.gms(111) 3 Mb
--- Starting execution: elapsed 0:00:00.004
--- mini-globiom_01.gms(39) 4 Mb
--- Generating LP model SimpleFarmModel
--- mini-globiom_01.gms(85) 4 Mb
---   4 rows  5 columns  11 non-zeroes
--- Range statistics (absolute non-zero finite values)
--- RHS       [min, max] : [ 1.000E+02, 1.000E+02] - Zero values observed as well
--- Bound     [min, max] : [        NA,        NA] - Zero values observed as well
--- Matrix    [min, max] : [ 1.000E+00, 8.000E+02]
--- Executing CPLEX (Solvelink=2): elapsed 0:00:00.014

IBM ILOG CPLEX   49.5.0 b32bf9f5 Apr 29, 2025          WEI x86 64bit/MS Window

*** This solver runs with a demo license. No commercial use.
--- GMO setup time: 0.00s
--- GMO memory 0.50 Mb (peak 0.50 Mb)
--- Dictionary memory 0.00 Mb
--- Cplex 22.1.2.0 link memory 0.00 Mb (peak 0.00 Mb)
--- Starting Cplex

Version identifier: 22.1.2.0 | 2024-11-25 | 0edbb82fd
CPXPARAM_Advance                                 0
CPXPARAM_Simplex_Display                         2
CPXPARAM_MIP_Display                             4
CPXPARAM_MIP_Pool_Capacity                       0
CPXPARAM_MIP_Tolerances_AbsMIPGap                0
Tried aggregator 1 time.
LP Presolve eliminated 3 rows and 5 columns.
All rows and columns eliminated.
Presolve time = 0.00 sec. (0.00 ticks)

--- LP status (1): optimal.
--- Cplex Time: 0.00sec (det. 0.00 ticks)


Optimal solution found
Objective:       120000.000000

--- Reading solution for model SimpleFarmModel
--- Executing after solve: elapsed 0:00:00.051
--- mini-globiom_01.gms(108) 4 Mb
*** Status: Normal completion
--- Job mini-globiom_01.gms Stop 05/14/25 15:04:09 elapsed 0:00:00.051
